c A SAT instance generated from a 3-CNF formula that had 18 clauses and 9 variables
p cnf 9 18
8 -3 -9 0
-2 -5 -7 0
4 -5 -8 0
-3 -8 9 0
7 4 -5 0
8 -2 -4 0
-5 -4 -1 0
-1 4 -9 0
7 -4 -3 0
-6 -4 -1 0
4 -2 -8 0
8 7 4 0
-6 1 2 0
-9 -8 4 0
-6 -8 1 0
-7 2 6 0
8 -7 1 0
8 -1 -3 0
